
Gurobi 9.5.0 (win64, Python) logging started Tue Aug  8 10:57:05 2023

Set parameter LogFile to value "data/small_training_set/problems/problem_0100_gurobi.log_gurobi.log"
Restricted license - for non-production use only - expires 2023-10-25

Gurobi 9.5.0 (win64, Python) logging started Mon Aug 28 10:30:33 2023

Set parameter LogFile to value "data/small_training_set/problems/problem_0100_gurobi.log_gurobi.log"
Restricted license - for non-production use only - expires 2023-10-25
